\ LP format - for model browsing. Use MPS format to capture full model detail.
Maximize
obj:   x[1] + x[128] + x[129] + x[67] + x[70] + x[7] + x[8] + x[39] + x[89]
   + x[77] + x[143] + x[27] + x[115] + x[118] + x[23] + x[121] + x[87]
   + x[79] + x[94] + x[2] + x[64] + x[97] + x[98] + x[101] + x[38] + x[104]
   + x[136] + x[53] + x[57] + x[90] + x[3] + x[33] + x[61] + x[9] + x[12]
   + x[13] + x[14] + x[47] + x[144] + x[17] + x[82] + x[122] + x[123]
   + x[26] + x[4] + x[99] + x[132] + x[133] + x[44] + x[76] + x[109]
   + x[112] + x[35] + x[91] + x[5] + x[141] + x[18] + x[148] + x[22]
   + x[30] + x[51] + x[55] + x[56] + x[59] + x[60] + x[69] + x[73] + x[105]
   + x[116] + x[125] + x[6] + x[37] + x[102] + x[137] + x[75] + x[111]
   + x[114] + x[130] + x[135] + x[110] + x[80] + x[142] + x[86] + x[24]
   + x[62] + x[65] + x[96] + x[83] + x[103] + x[84] + x[117] + x[19]
   + x[134] + x[43] + x[10] + x[139] + x[46] + x[120] + x[95] + x[11]
   + x[41] + x[140] + x[93] + x[66] + x[42] + x[78] + x[48] + x[28]
   + x[106] + x[32] + x[147] + x[54] + x[138] + x[113] + x[85] + x[15]
   + x[16] + x[81] + x[21] + x[71] + x[74] + x[146] + x[20] + x[45] + x[52]
   + x[150] + x[149] + x[92] + x[108] + x[126] + x[36] + x[49] + x[124]
   + x[58] + x[131] + x[50] + x[68] + x[25] + x[34] + x[145] + x[88]
   + x[72] + x[107] + x[29] + x[31] + x[40] + x[127] + x[100] + x[63]
   + x[119]
Subject To
 nod1: 11 x[1] + x[128] + x[129] + x[67] + x[70] + x[7] + x[8] + x[39]
   + x[89] + x[77] + x[143] + x[27] + x[115] + x[118] + x[23] + x[121]
   + x[87] + x[79] + x[94] <= 11
 nod128: x[1] + 12 x[128] + x[70] + x[136] + x[61] + x[99] + x[133] + x[35]
   + x[51] + x[75] + x[135] + x[110] + x[86] + x[10] + x[140] + x[113]
   + x[85] + x[16] + x[25] + x[88] <= 12
 nod129: x[1] + 11 x[129] + x[39] + x[77] + x[143] + x[87] + x[136] + x[53]
   + x[90] + x[3] + x[5] + x[142] + x[65] + x[103] + x[43] + x[54] + x[36]
   + x[124] + x[34] + x[40] <= 11
 nod67: x[1] + 7 x[67] + x[121] + x[144] + x[132] + x[44] + x[56] + x[69]
   + x[48] + x[108] + x[131] + x[100] <= 7
 nod70: x[1] + x[128] + 10 x[70] + x[7] + x[79] + x[64] + x[82] + x[133]
   + x[112] + x[35] + x[91] + x[30] + x[105] + x[114] + x[48] + x[50]
   + x[145] <= 10
 nod7: x[1] + x[70] + 10 x[7] + x[53] + x[99] + x[56] + x[130] + x[135]
   + x[110] + x[80] + x[142] + x[86] + x[24] + x[62] + x[65] <= 10
 nod8: x[1] + 12 x[8] + x[115] + x[121] + x[64] + x[104] + x[33] + x[61]
   + x[99] + x[5] + x[37] + x[142] + x[86] + x[96] + x[83] + x[103] + x[84]
   + x[117] <= 12
 nod39: x[1] + x[129] + 9 x[39] + x[27] + x[98] + x[136] + x[53] + x[5]
   + x[22] + x[56] + x[19] + x[139] + x[28] + x[32] + x[150] + x[49]
   + x[34] + x[40] <= 9
 nod89: x[1] + 9 x[89] + x[101] + x[99] + x[55] + x[125] + x[114] + x[135]
   + x[62] + x[92] + x[126] <= 9
 nod77: x[1] + x[129] + 9 x[77] + x[23] + x[87] + x[53] + x[44] + x[76]
   + x[148] + x[51] + x[65] + x[19] + x[140] + x[93] + x[78] + x[48]
   + x[16] + x[150] + x[124] + x[100] <= 9
 nod143: x[1] + x[129] + 11 x[143] + x[123] + x[26] + x[141] + x[65]
   + x[96] + x[10] + x[140] + x[106] + x[20] + x[108] + x[40] + x[63]
   <= 11
 nod27: x[1] + x[39] + 13 x[27] + x[101] + x[104] + x[136] + x[13] + x[35]
   + x[5] + x[148] + x[75] + x[10] + x[139] + x[120] + x[95] + x[11]
   + x[42] + x[106] + x[138] + x[74] + x[36] + x[49] + x[107] <= 13
 nod115: x[1] + x[8] + 9 x[115] + x[64] + x[104] + x[9] + x[44] + x[112]
   + x[35] + x[37] + x[65] + x[81] + x[50] + x[63] <= 9
 nod118: x[1] + 7 x[118] + x[2] + x[47] + x[65] + x[45] + x[126] + x[131]
   <= 7
 nod23: x[1] + x[77] + 11 x[23] + x[87] + x[90] + x[17] + x[132] + x[91]
   + x[5] + x[125] + x[6] + x[37] + x[130] + x[65] + x[46] + x[36] + x[49]
   + x[58] <= 11
 nod121: x[1] + x[67] + x[8] + 13 x[121] + x[44] + x[76] + x[18] + x[148]
   + x[30] + x[116] + x[125] + x[110] + x[142] + x[86] + x[65] + x[28]
   + x[147] + x[54] + x[45] + x[88] + x[31] <= 13
 nod87: x[1] + x[129] + x[77] + x[23] + 8 x[87] + x[2] + x[57] + x[51]
   + x[56] + x[37] + x[139] + x[11] + x[32] + x[54] + x[124] + x[107] <= 8
 nod79: x[1] + x[70] + 9 x[79] + x[112] + x[141] + x[105] + x[130] + x[134]
   + x[78] + x[71] + x[52] + x[108] + x[31] <= 9
 nod94: x[1] + 7 x[94] + x[14] + x[99] + x[76] + x[103] + x[41] + x[78]
   + x[146] + x[145] <= 7
 nod2: x[118] + x[87] + 8 x[2] + x[64] + x[97] + x[98] + x[101] + x[38]
   + x[104] + x[136] + x[53] + x[57] + x[90] <= 8
 nod64: x[70] + x[8] + x[115] + x[2] + 8 x[64] + x[97] + x[136] + x[17]
   + x[133] + x[6] + x[24] + x[15] + x[126] <= 8
 nod97: x[2] + x[64] + 9 x[97] + x[136] + x[82] + x[112] + x[141] + x[18]
   + x[22] + x[6] + x[111] + x[65] + x[103] + x[66] + x[113] + x[74]
   + x[92] + x[25] <= 9
 nod98: x[39] + x[2] + 11 x[98] + x[104] + x[122] + x[44] + x[111] + x[96]
   + x[10] + x[139] + x[93] + x[113] + x[81] + x[146] + x[52] + x[145]
   <= 11
 nod101: x[89] + x[27] + x[2] + 10 x[101] + x[123] + x[5] + x[55] + x[114]
   + x[110] + x[80] + x[93] + x[15] + x[149] + x[119] <= 10
 nod38: x[2] + 8 x[38] + x[22] + x[30] + x[59] + x[125] + x[80] + x[83]
   + x[134] + x[81] + x[150] + x[108] <= 8
 nod104: x[8] + x[27] + x[115] + x[2] + x[98] + 12 x[104] + x[136] + x[9]
   + x[26] + x[133] + x[112] + x[35] + x[30] + x[60] + x[140] + x[28]
   + x[15] + x[149] + x[36] + x[107] <= 12
 nod136: x[128] + x[129] + x[39] + x[27] + x[2] + x[64] + x[97] + x[104]
   + 11 x[136] + x[14] + x[82] + x[99] + x[132] + x[125] + x[83] + x[103]
   + x[139] + x[140] + x[78] + x[15] + x[49] + x[63] <= 11
 nod53: x[129] + x[7] + x[39] + x[77] + x[2] + 12 x[53] + x[141] + x[148]
   + x[55] + x[105] + x[125] + x[134] + x[43] + x[20] + x[92] + x[29]
   + x[100] <= 12
 nod57: x[87] + x[2] + 9 x[57] + x[90] + x[4] + x[112] + x[5] + x[141]
   + x[51] + x[120] + x[93] + x[32] + x[147] + x[81] + x[63] <= 9
 nod90: x[129] + x[23] + x[2] + x[57] + 9 x[90] + x[132] + x[35] + x[18]
   + x[111] + x[135] + x[103] + x[139] + x[93] + x[36] + x[127] <= 9
 nod3: x[129] + 11 x[3] + x[33] + x[61] + x[9] + x[12] + x[13] + x[14]
   + x[47] + x[144] + x[17] + x[82] + x[122] + x[123] + x[26] <= 11
 nod33: x[8] + x[3] + 9 x[33] + x[13] + x[76] + x[5] + x[105] + x[114]
   + x[11] + x[147] + x[138] + x[74] + x[146] + x[58] <= 9
 nod61: x[128] + x[8] + x[3] + 11 x[61] + x[12] + x[144] + x[76] + x[18]
   + x[55] + x[19] + x[134] + x[120] + x[48] + x[34] + x[31] + x[100]
   + x[119] <= 11
 nod9: x[115] + x[104] + x[3] + 6 x[9] + x[14] + x[73] + x[84] + x[19]
   + x[134] + x[43] <= 6
 nod12: x[3] + x[61] + 8 x[12] + x[132] + x[141] + x[59] + x[69] + x[62]
   + x[66] + x[42] + x[78] + x[48] + x[28] + x[106] <= 8
 nod13: x[27] + x[3] + x[33] + 9 x[13] + x[14] + x[17] + x[35] + x[91]
   + x[73] + x[41] + x[66] + x[32] + x[147] + x[54] <= 9
 nod14: x[94] + x[136] + x[3] + x[9] + x[13] + 12 x[14] + x[99] + x[44]
   + x[35] + x[30] + x[102] + x[114] + x[62] + x[46] + x[11] + x[78]
   + x[32] + x[138] + x[113] + x[85] <= 12
 nod47: x[118] + x[3] + 6 x[47] + x[10] + x[147] + x[81] + x[36] + x[145]
   <= 6
 nod144: x[67] + x[3] + x[61] + 14 x[144] + x[5] + x[116] + x[102] + x[110]
   + x[10] + x[140] + x[113] + x[15] + x[45] + x[52] + x[150] + x[58]
   + x[131] + x[25] + x[63] <= 14
 nod17: x[23] + x[64] + x[3] + x[13] + 10 x[17] + x[76] + x[141] + x[56]
   + x[102] + x[86] + x[10] + x[66] + x[45] + x[52] + x[150] <= 10
 nod82: x[70] + x[97] + x[136] + x[3] + 10 x[82] + x[132] + x[91] + x[141]
   + x[69] + x[125] + x[10] + x[28] + x[74] + x[45] + x[49] + x[50] + x[63]
   <= 10
 nod122: x[98] + x[3] + 12 x[122] + x[132] + x[109] + x[5] + x[51] + x[56]
   + x[6] + x[137] + x[130] + x[84] + x[11] + x[140] + x[78] + x[34] <= 12
 nod123: x[143] + x[101] + x[3] + 11 x[123] + x[44] + x[60] + x[116]
   + x[142] + x[84] + x[134] + x[120] + x[71] + x[74] <= 11
 nod26: x[143] + x[104] + x[3] + 10 x[26] + x[56] + x[125] + x[6] + x[65]
   + x[103] + x[84] + x[43] + x[46] + x[108] + x[25] + x[88] + x[72] <= 10
 nod4: x[57] + 8 x[4] + x[99] + x[132] + x[133] + x[44] + x[76] + x[109]
   + x[112] + x[35] + x[91] <= 8
 nod99: x[128] + x[7] + x[8] + x[89] + x[94] + x[136] + x[14] + x[4]
   + 11 x[99] + x[116] + x[37] + x[102] + x[66] + x[147] + x[54] + x[49]
   + x[25] <= 11
 nod132: x[67] + x[23] + x[136] + x[90] + x[12] + x[82] + x[122] + x[4]
   + 12 x[132] + x[55] + x[135] + x[41] + x[48] + x[28] + x[32] + x[20]
   + x[131] + x[88] <= 12
 nod133: x[128] + x[70] + x[64] + x[104] + x[4] + 8 x[133] + x[91] + x[55]
   + x[110] + x[103] + x[10] + x[25] + x[145] + x[31] <= 8
 nod44: x[67] + x[77] + x[115] + x[121] + x[98] + x[14] + x[123] + x[4]
   + 12 x[44] + x[148] + x[30] + x[56] + x[137] + x[135] + x[140] + x[78]
   + x[32] + x[52] + x[50] + x[100] <= 12
 nod76: x[77] + x[121] + x[94] + x[33] + x[61] + x[17] + x[4] + 10 x[76]
   + x[51] + x[55] + x[105] + x[130] + x[103] + x[19] + x[10] + x[150]
   + x[107] <= 10
 nod109: x[122] + x[4] + 8 x[109] + x[116] + x[6] + x[111] + x[96] + x[139]
   + x[93] + x[20] + x[49] + x[68] <= 8
 nod112: x[70] + x[115] + x[79] + x[97] + x[104] + x[57] + x[4] + 13 x[112]
   + x[91] + x[148] + x[69] + x[102] + x[137] + x[19] + x[43] + x[120]
   + x[11] + x[48] + x[15] + x[131] + x[107] <= 13
 nod35: x[128] + x[70] + x[27] + x[115] + x[104] + x[90] + x[13] + x[14]
   + x[4] + 13 x[35] + x[141] + x[56] + x[116] + x[80] + x[48] + x[106]
   + x[81] + x[20] + x[126] + x[31] <= 13
 nod91: x[70] + x[23] + x[13] + x[82] + x[4] + x[133] + x[112] + 10 x[91]
   + x[148] + x[105] + x[103] + x[71] + x[108] + x[107] + x[40] <= 10
 nod5: x[129] + x[8] + x[39] + x[27] + x[23] + x[101] + x[57] + x[33]
   + x[144] + x[122] + 12 x[5] + x[141] + x[18] + x[148] + x[22] + x[30]
   + x[51] + x[55] + x[56] + x[59] + x[60] + x[69] + x[73] + x[105]
   + x[116] + x[125] <= 12
 nod141: x[143] + x[79] + x[97] + x[53] + x[57] + x[12] + x[17] + x[82]
   + x[35] + x[5] + 12 x[141] + x[55] + x[69] + x[73] + x[137] + x[86]
   + x[65] + x[54] + x[21] + x[36] + x[40] <= 12
 nod18: x[121] + x[97] + x[90] + x[61] + x[5] + 11 x[18] + x[22] + x[30]
   + x[80] + x[62] + x[120] + x[78] + x[85] + x[146] + x[150] + x[149]
   + x[92] <= 11
 nod148: x[77] + x[27] + x[121] + x[53] + x[44] + x[112] + x[91] + x[5]
   + 10 x[148] + x[55] + x[59] + x[116] + x[37] + x[65] + x[45] + x[126]
   + x[131] + x[34] <= 10
 nod22: x[39] + x[97] + x[38] + x[5] + x[18] + 7 x[22] + x[56] + x[105]
   + x[111] + x[120] + x[93] + x[81] + x[45] + x[92] <= 7
 nod30: x[70] + x[121] + x[38] + x[104] + x[14] + x[44] + x[5] + x[18]
   + 11 x[30] + x[73] + x[102] + x[139] + x[93] + x[66] + x[54] + x[146]
   + x[45] + x[52] + x[131] <= 11
 nod51: x[128] + x[77] + x[87] + x[57] + x[122] + x[76] + x[5] + 9 x[51]
   + x[116] + x[135] + x[80] + x[24] + x[46] + x[74] + x[52] + x[72]
   + x[29] <= 9
 nod55: x[89] + x[101] + x[53] + x[61] + x[132] + x[133] + x[76] + x[5]
   + x[141] + x[148] + 12 x[55] + x[69] + x[116] + x[10] + x[139] + x[41]
   + x[140] + x[71] + x[149] + x[108] + x[49] + x[58] + x[127] <= 12
 nod56: x[67] + x[7] + x[39] + x[87] + x[17] + x[122] + x[26] + x[44]
   + x[35] + x[5] + x[22] + 12 x[56] + x[73] + x[111] + x[135] + x[24]
   + x[93] + x[32] + x[54] + x[74] + x[49] + x[72] <= 12
 nod59: x[38] + x[12] + x[5] + x[148] + 11 x[59] + x[105] + x[6] + x[37]
   + x[62] + x[10] + x[54] + x[85] + x[74] + x[150] + x[149] + x[124]
   + x[29] + x[127] <= 11
 nod60: x[104] + x[123] + x[5] + 6 x[60] + x[105] + x[86] + x[149] + x[49]
   + x[58] + x[63] <= 6
 nod69: x[67] + x[12] + x[82] + x[112] + x[5] + x[141] + x[55] + 10 x[69]
   + x[117] + x[42] + x[45] + x[124] + x[25] + x[88] + x[40] + x[127]
   + x[119] <= 10
 nod73: x[9] + x[13] + x[5] + x[141] + x[30] + x[56] + 8 x[73] + x[62]
   + x[28] + x[63] <= 8
 nod105: x[70] + x[79] + x[53] + x[33] + x[76] + x[91] + x[5] + x[22]
   + x[59] + x[60] + 10 x[105] + x[125] + x[37] + x[102] + x[103] + x[54]
   + x[108] + x[72] <= 10
 nod116: x[121] + x[144] + x[123] + x[99] + x[109] + x[35] + x[5] + x[148]
   + x[51] + x[55] + 10 x[116] + x[6] + x[111] + x[130] + x[24] + x[103]
   + x[10] + x[32] + x[113] + x[126] + x[50] + x[31] <= 10
 nod125: x[89] + x[23] + x[121] + x[38] + x[136] + x[53] + x[82] + x[26]
   + x[5] + x[105] + 13 x[125] + x[96] + x[134] + x[120] + x[66] + x[42]
   + x[81] + x[71] + x[149] + x[31] <= 13
 nod6: x[23] + x[64] + x[97] + x[122] + x[26] + x[109] + x[59] + x[116]
   + 9 x[6] + x[37] + x[102] + x[137] + x[75] + x[111] + x[114] <= 9
 nod37: x[8] + x[115] + x[23] + x[87] + x[99] + x[148] + x[59] + x[105]
   + x[6] + 13 x[37] + x[135] + x[41] + x[48] + x[74] + x[146] + x[20]
   + x[126] + x[36] + x[124] + x[68] + x[34] + x[107] + x[31] <= 13
 nod102: x[14] + x[144] + x[17] + x[99] + x[112] + x[30] + x[105] + x[6]
   + 11 x[102] + x[96] + x[83] + x[103] + x[95] + x[66] + x[78] + x[54]
   + x[107] + x[63] <= 11
 nod137: x[122] + x[44] + x[112] + x[141] + x[6] + 7 x[137] + x[41] + x[85]
   + x[16] + x[36] <= 7
 nod75: x[128] + x[27] + x[6] + 9 x[75] + x[86] + x[140] + x[28] + x[74]
   + x[146] + x[92] + x[124] + x[72] + x[31] <= 9
 nod111: x[97] + x[98] + x[90] + x[109] + x[22] + x[56] + x[116] + x[6]
   + 8 x[111] + x[138] + x[21] + x[45] + x[108] + x[49] <= 8
 nod114: x[70] + x[89] + x[101] + x[33] + x[14] + x[6] + 11 x[114] + x[96]
   + x[84] + x[10] + x[93] + x[85] + x[81] + x[74] + x[146] + x[150]
   + x[72] + x[40] <= 11
 nod130: x[7] + x[23] + x[79] + x[122] + x[76] + x[116] + 11 x[130] + x[65]
   + x[96] + x[103] + x[10] + x[139] + x[147] + x[113] + x[21] + x[131]
   <= 11
 nod135: x[128] + x[7] + x[89] + x[90] + x[132] + x[44] + x[51] + x[56]
   + x[37] + 12 x[135] + x[24] + x[96] + x[84] + x[43] + x[16] + x[52]
   + x[149] + x[108] + x[49] + x[50] + x[34] <= 12
 nod110: x[128] + x[7] + x[121] + x[101] + x[144] + x[133] + 9 x[110]
   + x[96] + x[134] + x[41] + x[66] + x[147] + x[49] + x[68] <= 9
 nod80: x[7] + x[101] + x[38] + x[35] + x[18] + x[51] + 9 x[80] + x[84]
   + x[134] + x[28] + x[106] + x[74] + x[25] <= 9
 nod142: x[129] + x[7] + x[8] + x[121] + x[123] + 8 x[142] + x[32] + x[15]
   + x[107] + x[100] <= 8
 nod86: x[128] + x[7] + x[8] + x[121] + x[17] + x[141] + x[60] + x[75]
   + 8 x[86] + x[24] + x[93] + x[147] + x[15] + x[71] <= 8
 nod24: x[7] + x[64] + x[51] + x[56] + x[116] + x[135] + x[86] + 11 x[24]
   + x[78] + x[32] + x[138] + x[85] + x[36] + x[131] + x[50] + x[68] <= 11
 nod62: x[7] + x[89] + x[12] + x[14] + x[18] + x[59] + x[73] + 11 x[62]
   + x[140] + x[147] + x[74] + x[149] + x[108] + x[49] + x[72] + x[100]
   <= 11
 nod65: x[129] + x[7] + x[77] + x[143] + x[115] + x[118] + x[23] + x[121]
   + x[97] + x[26] + x[141] + x[148] + x[130] + 11 x[65] + x[43] + x[139]
   + x[66] + x[150] + x[36] + x[100] <= 11
 nod96: x[8] + x[143] + x[98] + x[109] + x[125] + x[102] + x[114] + x[130]
   + x[135] + x[110] + 10 x[96] + x[41] <= 10
 nod83: x[8] + x[38] + x[136] + x[102] + 8 x[83] + x[10] + x[21] + x[92]
   + x[124] + x[58] <= 8
 nod103: x[129] + x[8] + x[94] + x[97] + x[136] + x[90] + x[26] + x[133]
   + x[76] + x[91] + x[105] + x[116] + x[102] + x[130] + 12 x[103] + x[117]
   + x[19] + x[134] + x[32] + x[85] + x[52] + x[149] + x[124] <= 12
 nod84: x[8] + x[9] + x[122] + x[123] + x[26] + x[114] + x[135] + x[80]
   + 13 x[84] + x[19] + x[140] + x[66] + x[106] + x[147] + x[45] + x[88]
   + x[107] + x[29] + x[40] <= 13
 nod117: x[8] + x[69] + x[103] + 5 x[117] + x[131] + x[145] + x[100]
   + x[119] <= 5
 nod19: x[39] + x[77] + x[61] + x[9] + x[76] + x[112] + x[103] + x[84]
   + 9 x[19] + x[42] + x[15] + x[16] + x[108] + x[126] <= 9
 nod134: x[79] + x[38] + x[53] + x[61] + x[9] + x[123] + x[125] + x[110]
   + x[80] + x[103] + 12 x[134] + x[41] + x[42] + x[32] + x[16] + x[124]
   + x[88] + x[107] + x[40] <= 12
 nod43: x[129] + x[53] + x[9] + x[26] + x[112] + x[135] + x[65] + 7 x[43]
   + x[147] + x[40] + x[127] <= 7
 nod10: x[128] + x[143] + x[27] + x[98] + x[47] + x[144] + x[17] + x[82]
   + x[133] + x[76] + x[55] + x[59] + x[116] + x[114] + x[130] + x[83]
   + 14 x[10] + x[139] + x[46] + x[120] + x[95] <= 14
 nod139: x[39] + x[27] + x[87] + x[98] + x[136] + x[90] + x[109] + x[30]
   + x[55] + x[130] + x[65] + x[10] + 10 x[139] + x[93] + x[42] + x[15]
   + x[21] + x[71] + x[45] + x[150] + x[127] <= 10
 nod46: x[23] + x[14] + x[26] + x[51] + x[10] + 11 x[46] + x[95] + x[48]
   + x[28] + x[54] + x[71] + x[146] + x[150] + x[124] + x[25] + x[88]
   <= 11
 nod120: x[27] + x[57] + x[61] + x[123] + x[112] + x[18] + x[22] + x[125]
   + x[10] + 10 x[120] + x[95] + x[140] + x[106] + x[16] + x[146] + x[124]
   + x[29] <= 10
 nod95: x[27] + x[102] + x[10] + x[46] + x[120] + 7 x[95] + x[28] + x[113]
   + x[21] + x[71] + x[49] + x[25] <= 7
 nod11: x[27] + x[87] + x[33] + x[14] + x[122] + x[112] + 8 x[11] + x[41]
   + x[140] + x[93] <= 8
 nod41: x[94] + x[13] + x[132] + x[55] + x[37] + x[137] + x[110] + x[96]
   + x[134] + x[11] + 12 x[41] + x[20] + x[52] + x[92] + x[49] + x[68]
   + x[29] + x[63] <= 12
 nod140: x[128] + x[77] + x[143] + x[104] + x[136] + x[144] + x[122]
   + x[44] + x[55] + x[75] + x[62] + x[84] + x[120] + x[11] + 11 x[140]
   + x[48] + x[28] + x[29] <= 11
 nod93: x[77] + x[98] + x[101] + x[57] + x[90] + x[109] + x[22] + x[30]
   + x[56] + x[114] + x[86] + x[139] + x[11] + 10 x[93] + x[147] + x[54]
   + x[92] <= 10
 nod66: x[97] + x[12] + x[13] + x[17] + x[99] + x[30] + x[125] + x[102]
   + x[110] + x[65] + x[84] + 9 x[66] + x[20] + x[36] + x[49] <= 9
 nod42: x[27] + x[12] + x[69] + x[125] + x[19] + x[134] + x[139] + 7 x[42]
   + x[48] + x[149] + x[72] + x[29] <= 7
 nod78: x[77] + x[79] + x[94] + x[136] + x[12] + x[14] + x[122] + x[44]
   + x[18] + x[102] + x[24] + 12 x[78] + x[126] + x[58] + x[88] + x[100]
   <= 12
 nod48: x[67] + x[70] + x[77] + x[61] + x[12] + x[132] + x[112] + x[35]
   + x[37] + x[46] + x[140] + x[42] + 9 x[48] + x[146] + x[58] + x[119]
   <= 9
 nod28: x[39] + x[121] + x[104] + x[12] + x[82] + x[132] + x[73] + x[75]
   + x[80] + x[46] + x[95] + x[140] + 10 x[28] + x[81] + x[74] + x[34]
   <= 10
 nod106: x[143] + x[27] + x[12] + x[35] + x[80] + x[84] + x[120] + 8 x[106]
   + x[147] + x[85] + x[81] + x[58] <= 8
 nod32: x[39] + x[87] + x[57] + x[13] + x[14] + x[132] + x[44] + x[56]
   + x[116] + x[142] + x[24] + x[103] + x[134] + 9 x[32] + x[124] + x[50]
   + x[40] + x[127] <= 9
 nod147: x[121] + x[57] + x[33] + x[13] + x[47] + x[99] + x[130] + x[110]
   + x[86] + x[62] + x[84] + x[43] + x[93] + x[106] + 11 x[147] + x[92]
   + x[108] + x[127] <= 11
 nod54: x[129] + x[121] + x[87] + x[13] + x[99] + x[141] + x[30] + x[56]
   + x[59] + x[105] + x[102] + x[46] + x[93] + 8 x[54] + x[21] + x[45]
   + x[88] <= 8
 nod138: x[27] + x[33] + x[14] + x[111] + x[24] + 9 x[138] + x[149] + x[92]
   + x[108] + x[49] + x[145] + x[127] + x[100] <= 9
 nod113: x[128] + x[97] + x[98] + x[14] + x[144] + x[116] + x[130] + x[95]
   + 8 x[113] + x[85] + x[74] + x[50] <= 8
 nod85: x[128] + x[14] + x[18] + x[59] + x[137] + x[114] + x[24] + x[103]
   + x[106] + x[113] + 9 x[85] + x[52] + x[34] + x[29] <= 9
 nod15: x[64] + x[101] + x[104] + x[136] + x[144] + x[112] + x[142] + x[86]
   + x[19] + x[139] + 9 x[15] + x[16] + x[81] + x[21] <= 9
 nod16: x[128] + x[77] + x[137] + x[135] + x[19] + x[134] + x[120] + x[15]
   + 9 x[16] + x[71] + x[74] + x[146] + x[20] <= 9
 nod81: x[115] + x[98] + x[38] + x[57] + x[47] + x[35] + x[22] + x[125]
   + x[114] + x[28] + x[106] + x[15] + 12 x[81] + x[150] + x[124] + x[25]
   + x[145] + x[31] <= 12
 nod21: x[141] + x[111] + x[130] + x[83] + x[139] + x[95] + x[54] + x[15]
   + 6 x[21] + x[108] + x[49] + x[124] <= 6
 nod71: x[79] + x[123] + x[91] + x[55] + x[125] + x[86] + x[139] + x[46]
   + x[95] + x[16] + 13 x[71] + x[45] + x[52] + x[126] + x[58] + x[131]
   + x[145] + x[29] <= 13
 nod74: x[27] + x[97] + x[33] + x[82] + x[123] + x[51] + x[56] + x[59]
   + x[37] + x[75] + x[114] + x[80] + x[62] + x[28] + x[113] + x[16]
   + 10 x[74] + x[49] + x[72] <= 10
 nod146: x[94] + x[98] + x[33] + x[18] + x[30] + x[37] + x[75] + x[114]
   + x[46] + x[120] + x[48] + x[16] + 11 x[146] + x[45] + x[49] + x[127]
   <= 11
 nod20: x[143] + x[53] + x[132] + x[109] + x[35] + x[37] + x[41] + x[66]
   + x[16] + 9 x[20] + x[52] + x[36] <= 9
 nod45: x[118] + x[121] + x[144] + x[17] + x[82] + x[148] + x[22] + x[30]
   + x[69] + x[111] + x[84] + x[139] + x[54] + x[71] + x[146] + 11 x[45]
   + x[100] + x[63] <= 11
 nod52: x[79] + x[98] + x[144] + x[17] + x[44] + x[30] + x[51] + x[135]
   + x[103] + x[41] + x[85] + x[71] + x[20] + 9 x[52] + x[149] + x[63]
   <= 9
 nod150: x[39] + x[77] + x[38] + x[144] + x[17] + x[76] + x[18] + x[59]
   + x[114] + x[65] + x[139] + x[46] + x[81] + 9 x[150] + x[131] + x[145]
   <= 9
 nod149: x[101] + x[104] + x[18] + x[55] + x[59] + x[60] + x[125] + x[135]
   + x[62] + x[103] + x[42] + x[138] + x[52] + 11 x[149] + x[108] + x[50]
   + x[68] + x[88] + x[63] <= 11
 nod92: x[89] + x[97] + x[53] + x[18] + x[22] + x[75] + x[83] + x[41]
   + x[93] + x[147] + x[138] + 8 x[92] + x[145] + x[63] <= 8
 nod108: x[67] + x[143] + x[79] + x[38] + x[26] + x[91] + x[55] + x[105]
   + x[111] + x[135] + x[62] + x[19] + x[147] + x[138] + x[21] + x[149]
   + 13 x[108] + x[88] + x[119] <= 13
 nod126: x[89] + x[118] + x[64] + x[35] + x[148] + x[116] + x[37] + x[19]
   + x[78] + x[71] + 10 x[126] + x[124] + x[119] <= 10
 nod36: x[129] + x[27] + x[23] + x[104] + x[90] + x[47] + x[141] + x[37]
   + x[137] + x[24] + x[65] + x[66] + x[20] + 8 x[36] + x[34] <= 8
 nod49: x[39] + x[27] + x[23] + x[136] + x[82] + x[99] + x[109] + x[55]
   + x[56] + x[60] + x[111] + x[135] + x[110] + x[62] + x[95] + x[41]
   + x[66] + x[138] + x[21] + x[74] + x[146] + 13 x[49] + x[40] <= 13
 nod124: x[129] + x[77] + x[87] + x[59] + x[69] + x[37] + x[75] + x[83]
   + x[103] + x[134] + x[46] + x[120] + x[32] + x[81] + x[21] + x[126]
   + 12 x[124] + x[50] + x[34] + x[29] + x[63] <= 12
 nod58: x[23] + x[33] + x[144] + x[55] + x[60] + x[83] + x[78] + x[48]
   + x[106] + x[71] + 9 x[58] + x[63] + x[119] <= 9
 nod131: x[67] + x[118] + x[144] + x[132] + x[112] + x[148] + x[30]
   + x[130] + x[24] + x[117] + x[71] + x[150] + 9 x[131] <= 9
 nod50: x[70] + x[115] + x[82] + x[44] + x[116] + x[135] + x[24] + x[32]
   + x[113] + x[149] + x[124] + 6 x[50] + x[34] + x[88] <= 6
 nod68: x[109] + x[37] + x[110] + x[24] + x[41] + x[149] + 5 x[68] <= 5
 nod25: x[128] + x[97] + x[144] + x[26] + x[99] + x[133] + x[69] + x[80]
   + x[46] + x[95] + x[81] + 10 x[25] + x[34] + x[145] + x[88] <= 10
 nod34: x[129] + x[39] + x[61] + x[122] + x[148] + x[37] + x[135] + x[28]
   + x[85] + x[36] + x[124] + x[50] + x[25] + 9 x[34] + x[100] <= 9
 nod145: x[70] + x[94] + x[98] + x[47] + x[133] + x[117] + x[138] + x[81]
   + x[71] + x[150] + x[92] + x[25] + 10 x[145] + x[40] <= 10
 nod88: x[128] + x[121] + x[26] + x[132] + x[69] + x[84] + x[134] + x[46]
   + x[78] + x[54] + x[149] + x[108] + x[50] + x[25] + 11 x[88] + x[72]
   + x[40] <= 11
 nod72: x[26] + x[51] + x[56] + x[105] + x[75] + x[114] + x[62] + x[42]
   + x[74] + x[88] + 8 x[72] + x[29] <= 8
 nod107: x[27] + x[87] + x[104] + x[76] + x[112] + x[91] + x[37] + x[102]
   + x[142] + x[84] + x[134] + 8 x[107] <= 8
 nod29: x[53] + x[51] + x[59] + x[84] + x[120] + x[41] + x[140] + x[42]
   + x[85] + x[71] + x[124] + x[72] + 8 x[29] <= 8
 nod31: x[121] + x[79] + x[61] + x[133] + x[35] + x[116] + x[125] + x[37]
   + x[75] + x[81] + 7 x[31] <= 7
 nod40: x[129] + x[39] + x[143] + x[91] + x[141] + x[69] + x[114] + x[84]
   + x[134] + x[43] + x[32] + x[49] + x[145] + x[88] + 8 x[40] <= 8
 nod127: x[90] + x[55] + x[59] + x[69] + x[43] + x[139] + x[32] + x[147]
   + x[138] + x[146] + 7 x[127] <= 7
 nod100: x[67] + x[77] + x[53] + x[61] + x[44] + x[142] + x[62] + x[65]
   + x[117] + x[78] + x[138] + x[45] + x[34] + 10 x[100] <= 10
 nod63: x[143] + x[115] + x[136] + x[57] + x[144] + x[82] + x[60] + x[73]
   + x[102] + x[41] + x[45] + x[52] + x[149] + x[92] + x[124] + x[58]
   + 11 x[63] <= 11
 nod119: x[101] + x[61] + x[69] + x[117] + x[48] + x[108] + x[126] + x[58]
   + 6 x[119] <= 6
Bounds
Binaries
 x[1] x[128] x[129] x[67] x[70] x[7] x[8] x[39] x[89] x[77] x[143] x[27]
 x[115] x[118] x[23] x[121] x[87] x[79] x[94] x[2] x[64] x[97] x[98] x[101]
 x[38] x[104] x[136] x[53] x[57] x[90] x[3] x[33] x[61] x[9] x[12] x[13]
 x[14] x[47] x[144] x[17] x[82] x[122] x[123] x[26] x[4] x[99] x[132]
 x[133] x[44] x[76] x[109] x[112] x[35] x[91] x[5] x[141] x[18] x[148]
 x[22] x[30] x[51] x[55] x[56] x[59] x[60] x[69] x[73] x[105] x[116] x[125]
 x[6] x[37] x[102] x[137] x[75] x[111] x[114] x[130] x[135] x[110] x[80]
 x[142] x[86] x[24] x[62] x[65] x[96] x[83] x[103] x[84] x[117] x[19]
 x[134] x[43] x[10] x[139] x[46] x[120] x[95] x[11] x[41] x[140] x[93]
 x[66] x[42] x[78] x[48] x[28] x[106] x[32] x[147] x[54] x[138] x[113]
 x[85] x[15] x[16] x[81] x[21] x[71] x[74] x[146] x[20] x[45] x[52] x[150]
 x[149] x[92] x[108] x[126] x[36] x[49] x[124] x[58] x[131] x[50] x[68]
 x[25] x[34] x[145] x[88] x[72] x[107] x[29] x[31] x[40] x[127] x[100]
 x[63] x[119]
End
